s td 218 12 285
b 1 9 213 257
b 2 15 36 82
b 3 28 125 231
b 4 25 32 125
b 5 36 37 48
b 6 73 118 125
b 7 74 125 208
b 8 77 108 125
b 9 78 125 209
b 10 103 113 125
b 11 79 106 114
b 12 112 122 125
b 13 125 136 138
b 14 88 125 138
b 15 125 139 172
b 16 125 150 238
b 17 125 153 185
b 18 69 141 165
b 19 125 191 204
b 20 88 125 208
b 21 125 216 220
b 22 125 230 273
b 23 125 242 284
b 24 125 247 275
b 25 44 249 257
b 26 125 156 279
b 27 88 125 156
b 28 88 125 284
b 29 79 221 283
b 30 125 284
b 31 25 125 263
b 32 50 79 114
b 33 79 181 221
b 34 36 50 79 181
b 35 36 79 181
b 36 44 58 59 257
b 37 58 123 213 257
b 38 53 121 140 206
b 39 36 57 79 125
b 40 1 2 10 23 36 57 96 121 126 193 199 267
b 41 1 10 23 36 57 96 121 126 167 190 193 199
b 42 10 23 36 57 96 121 126 167 190 193 197 217
b 43 10 36 57 96 121 126 167 190 193 197 217 281
b 44 10 36 57 96 121 167 193 197 217 222 281
b 45 10 36 57 89 121 151 167 193 212 217 222 281
b 46 10 36 57 89 121 151 167 174 186 193 212 217
b 47 10 36 57 89 121 151 171 174 177 186 193 212
b 48 10 36 57 89 121 171 174 177 186 193 212 253
b 49 10 36 57 89 121 171 174 177 193 212 253 264
b 50 10 36 57 89 91 121 171 193 212 253 264
b 51 10 11 36 57 89 91 121 171 193 253 264
b 52 10 11 33 36 39 43 57 91 121 193 253 264
b 53 10 11 33 36 39 43 57 121 144 188 193 253
b 54 10 27 33 36 39 43 57 121 142 144 188 193
b 55 10 27 31 33 36 57 61 121 142 188 193 194
b 56 10 31 36 57 61 121 142 188 193 194 227 276
b 57 10 31 36 57 61 121 160 188 193 194 227 276
b 58 10 31 36 57 61 121 147 160 193 194 227 276
b 59 7 10 31 36 57 61 104 121 147 160 193 276
b 60 7 10 36 57 66 72 104 121 147 193 210 276
b 61 7 10 36 57 66 72 104 121 147 159 193 210
b 62 7 10 36 40 57 66 72 104 121 159 193 210
b 63 7 10 36 40 57 72 104 121 159 193 198 210
b 64 7 10 36 40 57 68 72 121 159 193 198 210
b 65 7 10 36 57 68 72 121 187 193 198 210 233
b 66 3 10 36 57 68 72 116 121 187 193 198 233
b 67 3 10 36 57 68 116 121 187 193 198 233 269
b 68 3 10 36 57 81 116 121 187 193 198 258 269
b 69 3 10 36 57 81 107 121 134 193 258 269 280
b 70 3 10 36 57 75 107 121 134 193 258 269 280
b 71 3 10 36 57 67 75 107 121 134 193 269 280
b 72 3 10 36 42 57 67 75 107 121 134 193 219
b 73 3 10 36 42 57 67 70 75 107 121 193 219
b 74 3 10 36 42 57 67 70 75 121 193 196 219
b 75 10 36 42 52 57 67 70 75 121 193 196
b 76 10 12 36 42 52 57 67 70 121 193 196
b 77 10 12 36 52 57 70 97 121 173 178 193 196
b 78 10 16 36 52 57 97 121 173 178 193
b 79 10 16 36 57 121 173 178 193 240
b 80 10 16 36 57 173 178 193 229 240
b 81 10 16 36 57 124 178 229 240
b 82 10 16 24 124 178 229
b 83 10 24 124 168 178
b 84 10 57 173 178 193 229 240 262
b 85 10 57 178 193 224 240 262
b 86 47 57 178 224 262
b 87 10 12 36 57 70 97 173 178 193 196 236
b 88 10 12 36 57 97 102 173 193 196 236
b 89 57 93 97 102 173 196 236
b 90 38 57 93 102 173 236
b 91 38 93 173 236 245
b 92 10 12 102 173 202 236
b 93 12 83 173 202 236
b 94 10 36 57 97 102 111 193 236
b 95 10 36 57 97 98 111 236
b 96 70 97 133 178 236
b 97 3 42 166 196 219
b 98 42 70 71 107 219
b 99 10 36 57 81 107 121 134 193 223 280
b 100 10 36 57 100 121 134 193 223 280
b 101 10 36 57 99 100 223 280
b 102 81 107 170 223 280
b 103 10 81 116 187 198 251 258
b 104 57 68 116 233 269 274
b 105 57 116 195 269 274
b 106 3 10 29 36 57 72 116 193 233
b 107 10 29 36 57 116 184 193 233
b 108 10 29 36 57 154 184 233
b 109 3 29 72 233 255
b 110 7 187 200 210 233
b 111 40 104 120 198 210
b 112 10 36 40 57 66 121 193 210 234
b 113 10 36 55 210 234
b 114 10 40 57 66 76 193 234
b 115 20 66 72 210 276
b 116 7 10 31 36 57 61 104 109 160 193
b 117 57 104 109 145 160
b 118 7 10 61 109 155
b 119 31 36 109 176 193
b 120 27 31 33 49 57 61 194
b 121 10 27 39 43 142 144 215
b 122 11 36 39 57 121 144 188 193 253 278
b 123 36 39 115 121 193 278
b 124 11 57 137 144 188 253 278
b 125 33 39 43 57 91 243 264
b 126 171 177 186 253 271
b 127 10 36 57 129 151 171 177 193
b 128 36 129 151 193 226
b 129 57 151 167 174 186 217 268
b 130 10 89 151 212 214 222 281
b 131 10 36 57 119 121 126 190 193 197 281
b 132 57 119 126 190 197 261 281
b 133 57 65 119 126 197 261
b 134 65 126 148 197 261
b 135 36 57 119 121 180 190 193
b 136 36 105 119 121 180 193
b 137 23 190 197 217 265
b 138 1 35 167 190 199
b 139 2 10 23 36 57 96 121 126 193 199 203 267
b 140 2 10 23 36 57 121 126 189 193 199 203 267
b 141 2 10 36 57 80 121 126 189 193 199 203 267
b 142 2 10 36 57 80 121 126 189 193 203 267 277
b 143 2 4 10 36 57 80 193 267 277
b 144 2 4 10 36 57 241 267 277
b 145 2 4 10 36 57 131 241
b 146 2 10 36 57 80 121 126 189 193 203 260 277
b 147 2 10 36 57 121 126 164 189 193 203 260 277
b 148 2 10 36 57 117 121 126 164 189 193 260 277
b 149 10 36 57 117 121 146 164 189 193 244 246 277
b 150 10 36 57 121 146 161 162 189 193 244 246 277
b 151 10 36 57 121 140 146 161 162 189 193 246
b 152 10 34 36 51 57 121 140 161 162 189 193 246
b 153 10 34 36 51 57 121 140 161 162 193 246 248
b 154 10 34 36 51 57 121 140 162 193 206 246 248
b 155 10 34 36 51 57 121 152 162 193 206 246 248
b 156 10 34 36 51 57 94 121 152 193 206 246 248
b 157 10 34 36 57 86 94 121 152 193 205 206 248
b 158 10 36 57 86 94 121 152 175 193 205 206 248
b 159 10 18 36 57 86 121 152 175 193 205 206 248
b 160 10 18 36 57 86 121 152 175 193 206 239 259
b 161 10 14 17 36 57 86 110 121 175 193 239 259
b 162 10 14 17 19 36 57 110 121 175 193 239 250
b 163 5 14 19 36 121 193
b 164 10 17 19 36 57 110 121 175 193 237 239 250
b 165 10 17 19 36 57 101 110 121 193 237 239 250
b 166 10 17 19 36 57 92 101 110 121 193 237 250
b 167 10 19 36 54 57 92 101 110 121 193 218 237
b 168 10 36 54 57 92 121 182 193 218 228 237 272
b 169 10 36 54 57 92 121 149 182 193 228 235 272
b 170 10 36 54 57 92 121 149 182 193 228 235 282
b 171 10 36 57 92 121 143 149 182 193 228 235 282
b 172 10 36 45 57 92 121 143 149 193 228 235 282
b 173 10 36 45 57 121 128 143 192 193 228 235 282
b 174 10 36 45 57 64 121 128 192 193 228 235
b 175 10 36 45 57 64 95 121 128 192 193 228
b 176 10 22 36 45 57 64 95 121 128 192 193
b 177 10 22 36 45 57 95 121 128 135 163 193
b 178 10 22 36 45 57 95 128 135 163 193 252
b 179 10 22 36 57 85 95 128 135 163 193 252
b 180 10 22 36 57 85 128 135 169 193 225 252
b 181 10 22 36 57 85 135 169 193 207 225
b 182 10 22 36 57 85 157 169 193 207 225
b 183 10 22 36 57 59 85 157 169 193 207
b 184 10 36 57 58 59 85 157 169 193 257
b 185 10 36 57 58 85 157 169 193 257 285
b 186 10 57 58 90 169 193 257 285
b 187 8 10 57 58 90 193 285
b 188 58 90 123 169 257
b 189 10 36 57 58 85 157 257 270 285
b 190 10 36 57 69 157 257 270 285
b 191 10 36 57 69 87 257 285
b 192 36 57 69 132 257 270
b 193 36 57 69 132 263
b 194 36 57 125 263
b 195 10 63 128 135 169 225 252
b 196 10 36 41 121 135 163 193
b 197 10 13 41 163 193
b 198 10 128 143 192 201 235 282
b 199 36 193 235 254 272
b 200 10 60 182 218 228 237 272
b 201 19 54 57 101 110 158 218
b 202 10 19 62 175 237 250
b 203 62 175 211 237 250
b 204 10 14 17 86 110 179 259
b 205 10 18 36 57 152 206 239 259 266
b 206 10 36 56 57 152 206 239 266
b 207 46 56 57 152 239
b 208 10 34 57 86 193 205 206 232
b 209 21 34 86 205 232
b 210 10 57 130 193 205 206 232
b 211 10 34 36 51 57 140 183 189
b 212 10 34 51 84 183 189
b 213 34 51 84 127 189
b 214 6 57 146 161 162 244 277
b 215 10 26 117 146 164 244 246
b 216 2 117 126 256 260
b 217 2 30 164 203 260
b 218 69 141 157 257
1 37
2 40
3 194
4 31
5 40
6 194
7 20
8 194
9 194
10 194
11 32
12 194
13 14
14 28
15 194
16 194
17 194
18 218
19 194
20 28
21 194
22 194
23 30
24 194
25 36
26 27
27 28
28 30
29 33
30 194
31 194
32 34
33 35
34 35
35 39
36 184
37 188
38 154
39 194
40 41
40 139
41 42
41 138
42 43
42 137
43 44
43 131
44 45
45 46
45 130
46 47
46 129
47 48
47 127
48 49
48 126
49 50
50 51
51 52
52 53
52 125
53 54
53 122
54 55
54 121
55 56
55 120
56 57
57 58
58 59
59 60
59 116
60 61
60 115
61 62
62 63
62 112
63 64
63 111
64 65
65 66
65 110
66 67
66 106
67 68
67 104
68 69
68 103
69 70
69 99
70 71
71 72
72 73
73 74
73 98
74 75
74 97
75 76
76 77
77 78
77 87
78 79
79 80
80 81
80 84
81 82
82 83
84 85
85 86
87 88
87 96
88 89
88 92
88 94
89 90
90 91
92 93
94 95
99 100
99 102
100 101
104 105
106 107
106 109
107 108
112 113
112 114
116 117
116 118
116 119
122 123
122 124
127 128
131 132
131 135
132 133
133 134
135 136
139 140
140 141
141 142
142 143
142 146
143 144
144 145
146 147
147 148
147 217
148 149
148 216
149 150
149 215
150 151
150 214
151 152
152 153
152 211
153 154
154 155
155 156
156 157
157 158
157 208
158 159
159 160
160 161
160 205
161 162
161 204
162 163
162 164
164 165
164 202
165 166
166 167
167 168
167 201
168 169
168 200
169 170
169 199
170 171
171 172
172 173
173 174
173 198
174 175
175 176
176 177
177 178
177 196
178 179
179 180
180 181
180 195
181 182
182 183
183 184
184 185
185 186
185 189
186 187
186 188
189 190
190 218
190 191
190 192
192 193
193 194
196 197
202 203
205 206
206 207
208 209
208 210
211 212
212 213
